Route #1: 27 97 19
Route #2: 24 95 73 53 33 32
Route #3: 52 91 50
Route #4: 93 75
Route #5: 7 2 45 43 29 36 72 57
Route #6: 14 49 6 37 87
Route #7: 66 84 90 68
Route #8: 86 9 92
Route #9: 30 85 11 79
Route #10: 8 17
Route #11: 69 16 55 76
Route #12: 3 77 63
Route #13: 31 46 35
Route #14: 15 22 41 20
Route #15: 83 51 81
Route #16: 58 12 5
Route #17: 38 47 26 48 96 64 34
Route #18: 71 62 99 98 89
Route #19: 59 60 82
Route #20: 21 56 94 80
Route #21: 18 10 39
Route #22: 100 61 23
Route #23: 25 65 78 42 28
Route #24: 44 67 88 40
Route #25: 54 70 1
Route #26: 4 13 74
Cost 27591.0000
Time 16.0011